benchmarks/bfuzz0/73732891218672120301427380552687928248.smt2
(set-logic QF_FP)
(declare-const x0 (_ FloatingPoint 8 24))
(declare-const x1 (_ FloatingPoint 8 24))
(declare-const x2 (_ FloatingPoint 8 24))
(declare-const x3 (_ FloatingPoint 8 24))
(declare-const x4 (_ FloatingPoint 8 24))
(declare-const x5 (_ FloatingPoint 8 24))
(declare-const x6 (_ FloatingPoint 8 24))
(declare-const x7 (_ FloatingPoint 8 24))
(declare-const x8 (_ FloatingPoint 8 24))
(declare-const x9 (_ FloatingPoint 8 24))
(declare-const x10 (_ FloatingPoint 8 24))
(declare-const x11 (_ FloatingPoint 8 24))
(declare-const x12 (_ FloatingPoint 8 24))
(declare-const x13 (_ FloatingPoint 8 24))
(declare-const x14 (_ FloatingPoint 8 24))
(declare-const x15 (_ FloatingPoint 8 24))
(declare-const x16 (_ FloatingPoint 8 24))
(declare-const x17 (_ FloatingPoint 8 24))
(declare-const x18 (_ FloatingPoint 8 24))
(declare-const x19 (_ FloatingPoint 8 24))
(declare-const x20 (_ FloatingPoint 8 24))
(declare-const x21 (_ FloatingPoint 8 24))
(assert (fp.leq (fp.sub RNE x16 x13) (fp.add RNE x5 x1)))
(assert (fp.lt (fp.div RNE x6 x16) (fp.add RNE x6 x3)))
(assert (fp.gt (fp.add RNE x9 x20) (fp.neg x14)))
(assert (fp.gt (fp.sub RNE x19 x8) (fp.div RNE x14 x19)))
(assert (fp.gt (fp.sub RNE x21 x8) (fp.sub RNE x1 x19)))
(assert (fp.lt (fp.neg x18) (fp.div RNE x18 x21)))
(check-sat)
