db/data/73732891218672120301427380552687928248.z3.out
sat
-------------------
12.872140156
